solution status: optimal solution found
objective value:                     146490.710178217
d11(0,0)                                            1 	(obj:0)
d11(1,1)                                            1 	(obj:0)
d11(1,2)                                            1 	(obj:0)
d11(2,4)                                            1 	(obj:0)
d11(2,5)                                            1 	(obj:0)
d11(2,7)                                            1 	(obj:0)
d11(2,8)                                            1 	(obj:0)
d11(2,10)                                           1 	(obj:0)
d11(2,11)                                           1 	(obj:0)
d11(3,13)                                           1 	(obj:0)
d11(3,16)                                           1 	(obj:0)
d11(3,17)                                           1 	(obj:0)
d11(3,19)                                           1 	(obj:0)
d11(3,20)                                           1 	(obj:0)
d11(3,22)                                           1 	(obj:0)
d11(3,23)                                           1 	(obj:0)
d11(3,25)                                           1 	(obj:0)
d11(3,26)                                           1 	(obj:0)
d11(3,28)                                           1 	(obj:0)
d11(3,29)                                           1 	(obj:0)
d11(3,31)                                           1 	(obj:0)
d11(3,32)                                           1 	(obj:0)
d11(3,34)                                           1 	(obj:0)
d11(3,35)                                           1 	(obj:0)
d11(3,37)                                           1 	(obj:0)
d11(3,38)                                           1 	(obj:0)
d11(4,40)                                           1 	(obj:0)
d11(4,41)                                           1 	(obj:0)
d11(4,43)                                           1 	(obj:0)
d11(4,44)                                           1 	(obj:0)
d11(4,46)                                           1 	(obj:0)
d11(4,47)                                           1 	(obj:0)
d11(4,49)                                           1 	(obj:0)
d11(4,50)                                           1 	(obj:0)
d11(4,52)                                           1 	(obj:0)
d11(4,53)                                           1 	(obj:0)
d11(4,55)                                           1 	(obj:0)
d11(4,56)                                           1 	(obj:0)
d11(4,58)                                           1 	(obj:0)
d11(4,59)                                           1 	(obj:0)
d11(4,61)                                           1 	(obj:0)
d11(4,62)                                           1 	(obj:0)
d11(4,64)                                           1 	(obj:0)
d11(4,65)                                           1 	(obj:0)
d11(4,67)                                           1 	(obj:0)
d11(4,68)                                           1 	(obj:0)
d11(4,70)                                           1 	(obj:0)
d11(4,71)                                           1 	(obj:0)
d11(4,73)                                           1 	(obj:0)
d11(4,74)                                           1 	(obj:0)
d11(4,76)                                           1 	(obj:0)
d11(4,77)                                           1 	(obj:0)
d11(4,78)                                           1 	(obj:0)
d11(4,79)                                           1 	(obj:0)
d11(4,80)                                           1 	(obj:0)
d11(4,82)                                           1 	(obj:0)
d11(4,83)                                           1 	(obj:0)
d11(4,85)                                           1 	(obj:0)
d11(4,86)                                           1 	(obj:0)
d11(4,88)                                           1 	(obj:0)
d11(4,89)                                           1 	(obj:0)
d11(4,91)                                           1 	(obj:0)
d11(4,92)                                           1 	(obj:0)
d11(4,94)                                           1 	(obj:0)
d11(4,95)                                           1 	(obj:0)
d11(4,97)                                           1 	(obj:0)
d11(4,98)                                           1 	(obj:0)
d11(4,100)                                          1 	(obj:0)
d11(4,101)                                          1 	(obj:0)
d11(4,103)                                          1 	(obj:0)
d11(4,104)                                          1 	(obj:0)
d11(4,106)                                          1 	(obj:0)
d11(4,107)                                          1 	(obj:0)
d11(4,109)                                          1 	(obj:0)
d11(4,110)                                          1 	(obj:0)
d11(4,112)                                          1 	(obj:0)
d11(4,113)                                          1 	(obj:0)
d11(4,115)                                          1 	(obj:0)
d11(4,116)                                          1 	(obj:0)
d11(4,118)                                          1 	(obj:0)
d11(4,119)                                          1 	(obj:0)
d12(1,3)                                            1 	(obj:0)
d12(2,6)                                            1 	(obj:0)
d12(2,9)                                            1 	(obj:0)
d12(2,12)                                           1 	(obj:0)
d12(3,15)                                           1 	(obj:0)
d12(3,18)                                           1 	(obj:0)
d12(3,21)                                           1 	(obj:0)
d12(3,24)                                           1 	(obj:0)
d12(3,27)                                           1 	(obj:0)
d12(3,30)                                           1 	(obj:0)
d12(3,33)                                           1 	(obj:0)
d12(3,36)                                           1 	(obj:0)
d12(3,39)                                           1 	(obj:0)
d21(3,13)                                           1 	(obj:0)
d21(3,14)                                           1 	(obj:0)
d21(3,16)                                           1 	(obj:0)
d21(3,22)                                           1 	(obj:0)
d21(4,40)                                           1 	(obj:0)
d21(4,41)                                           1 	(obj:0)
d21(4,42)                                           1 	(obj:0)
d21(4,43)                                           1 	(obj:0)
d21(4,44)                                           1 	(obj:0)
d21(4,45)                                           1 	(obj:0)
d21(4,46)                                           1 	(obj:0)
d21(4,47)                                           1 	(obj:0)
d21(4,49)                                           1 	(obj:0)
d21(4,50)                                           1 	(obj:0)
d21(4,51)                                           1 	(obj:0)
d21(4,52)                                           1 	(obj:0)
d21(4,53)                                           1 	(obj:0)
d21(4,55)                                           1 	(obj:0)
d21(4,58)                                           1 	(obj:0)
d21(4,59)                                           1 	(obj:0)
d21(4,61)                                           1 	(obj:0)
d21(4,64)                                           1 	(obj:0)
d21(4,67)                                           1 	(obj:0)
d21(4,68)                                           1 	(obj:0)
d21(4,69)                                           1 	(obj:0)
d21(4,70)                                           1 	(obj:0)
d21(4,71)                                           1 	(obj:0)
d21(4,73)                                           1 	(obj:0)
d21(4,76)                                           1 	(obj:0)
d21(4,77)                                           1 	(obj:0)
d21(4,79)                                           1 	(obj:0)
d21(4,85)                                           1 	(obj:0)
d21(4,94)                                           1 	(obj:0)
d21(4,95)                                           1 	(obj:0)
d21(4,97)                                           1 	(obj:0)
d21(4,100)                                          1 	(obj:0)
d21(4,103)                                          1 	(obj:0)
d21(4,112)                                          1 	(obj:0)
STE(1,1)                             3350.23399666671 	(obj:0)
STE(0,0)                                         4725 	(obj:0)
STE(1,2)                                         4347 	(obj:0)
STE(1,3)                             5259.56333385004 	(obj:0)
STE(2,4)                             1954.12286615005 	(obj:0)
STE(2,5)                             2950.88886948334 	(obj:0)
STE(2,6)                             3865.80234539776 	(obj:0)
STE(2,7)                             2950.88886948334 	(obj:0)
STE(2,8)                             3947.65487281663 	(obj:0)
STE(2,9)                             4862.56834873105 	(obj:0)
STE(2,10)                            3863.45220333338 	(obj:0)
STE(2,11)                            4860.21820666667 	(obj:0)
STE(2,12)                            5775.13168258109 	(obj:0)
STE(3,13)                            579.356862816701 	(obj:0)
STE(3,14)                            1576.12286615005 	(obj:0)
STE(3,15)                            2488.68620000004 	(obj:0)
STE(3,16)                            1576.12286614999 	(obj:0)
STE(3,17)                            2572.88886948334 	(obj:0)
STE(3,18)                            3485.45220333333 	(obj:0)
STE(3,19)                            2491.03634206441 	(obj:0)
STE(3,20)                            3487.80234539776 	(obj:0)
STE(3,21)                            4400.36567924774 	(obj:0)
STE(3,22)                            1576.12286614999 	(obj:0)
STE(3,23)                            2572.88886948328 	(obj:0)
STE(3,24)                            3485.45220333333 	(obj:0)
STE(3,25)                            2572.88886948328 	(obj:0)
STE(3,26)                            3569.65487281663 	(obj:0)
STE(3,27)                            4482.21820666662 	(obj:0)
STE(3,28)                             3487.8023453977 	(obj:0)
STE(3,29)                            4484.56834873105 	(obj:0)
STE(3,30)                            5397.13168258103 	(obj:0)
STE(3,31)                            2488.68620000003 	(obj:0)
STE(3,32)                            3485.45220333338 	(obj:0)
STE(3,33)                            4398.01553718337 	(obj:0)
STE(3,34)                            3485.45220333332 	(obj:0)
STE(3,35)                            4482.21820666667 	(obj:0)
STE(3,36)                            5394.78154051666 	(obj:0)
STE(3,37)                            4400.36567924774 	(obj:0)
STE(3,38)                            5397.13168258103 	(obj:0)
STE(3,39)                            6309.69501643107 	(obj:0)
STE(4,40)                           -2012.86134384992 	(obj:0)
STE(4,41)                           -1016.09534051663 	(obj:0)
STE(4,42)                            201.356862816701 	(obj:0)
STE(4,43)                           -1016.09534051657 	(obj:0)
STE(4,44)                           -19.3293371832781 	(obj:0)
STE(4,45)                            1198.12286615005 	(obj:0)
STE(4,46)                           -103.532006666581 	(obj:0)
STE(4,47)                             893.23399666671 	(obj:0)
STE(4,48)                            2110.68620000004 	(obj:0)
STE(4,49)                           -1016.09534051663 	(obj:0)
STE(4,50)                           -19.3293371833373 	(obj:0)
STE(4,51)                            1198.12286614999 	(obj:0)
STE(4,52)                           -19.3293371832781 	(obj:0)
STE(4,53)                            977.436666150013 	(obj:0)
STE(4,54)                            2194.88886948334 	(obj:0)
STE(4,55)                            893.233996666709 	(obj:0)
STE(4,56)                                        1890 	(obj:0)
STE(4,57)                            3107.45220333333 	(obj:0)
STE(4,58)                           -101.181864602214 	(obj:0)
STE(4,59)                            895.584138731077 	(obj:0)
STE(4,60)                            2113.03634206441 	(obj:0)
STE(4,61)                            895.584138731136 	(obj:0)
STE(4,62)                            1892.35014206443 	(obj:0)
STE(4,63)                            3109.80234539776 	(obj:0)
STE(4,64)                            1808.14747258112 	(obj:0)
STE(4,65)                            2804.91347591441 	(obj:0)
STE(4,66)                            4022.36567924774 	(obj:0)
STE(4,67)                           -1016.09534051663 	(obj:0)
STE(4,68)                           -19.3293371833373 	(obj:0)
STE(4,69)                            1198.12286614999 	(obj:0)
STE(4,70)                           -19.3293371833369 	(obj:0)
STE(4,71)                            977.436666149954 	(obj:0)
STE(4,72)                            2194.88886948328 	(obj:0)
STE(4,73)                            893.233996666709 	(obj:0)
STE(4,74)                                        1890 	(obj:0)
STE(4,75)                            3107.45220333333 	(obj:0)
STE(4,76)                           -19.3293371833369 	(obj:0)
STE(4,77)                            977.436666149954 	(obj:0)
STE(4,78)                            2194.88886948328 	(obj:0)
STE(4,79)                            977.436666150013 	(obj:0)
STE(4,80)                             1974.2026694833 	(obj:0)
STE(4,81)                            3191.65487281663 	(obj:0)
STE(4,82)                                        1890 	(obj:0)
STE(4,83)                            2886.76600333329 	(obj:0)
STE(4,84)                            4104.21820666662 	(obj:0)
STE(4,85)                            895.584138731076 	(obj:0)
STE(4,86)                            1892.35014206437 	(obj:0)
STE(4,87)                             3109.8023453977 	(obj:0)
STE(4,88)                            1892.35014206443 	(obj:0)
STE(4,89)                            2889.11614539772 	(obj:0)
STE(4,90)                            4106.56834873105 	(obj:0)
STE(4,91)                            2804.91347591441 	(obj:0)
STE(4,92)                             3801.6794792477 	(obj:0)
STE(4,93)                            5019.13168258103 	(obj:0)
STE(4,94)                           -103.532006666588 	(obj:0)
STE(4,95)                            893.233996666703 	(obj:0)
STE(4,96)                            2110.68620000003 	(obj:0)
STE(4,97)                            893.233996666762 	(obj:0)
STE(4,98)                            1890.00000000005 	(obj:0)
STE(4,99)                            3107.45220333338 	(obj:0)
STE(4,100)                           1805.79733051675 	(obj:0)
STE(4,101)                           2802.56333385004 	(obj:0)
STE(4,102)                           4020.01553718337 	(obj:0)
STE(4,103)                           893.233996666703 	(obj:0)
STE(4,104)                           1889.99999999999 	(obj:0)
STE(4,105)                           3107.45220333332 	(obj:0)
STE(4,106)                           1890.00000000005 	(obj:0)
STE(4,107)                           2886.76600333334 	(obj:0)
STE(4,108)                           4104.21820666667 	(obj:0)
STE(4,109)                           2802.56333385004 	(obj:0)
STE(4,110)                           3799.32933718333 	(obj:0)
STE(4,111)                           5016.78154051666 	(obj:0)
STE(4,112)                           1808.14747258104 	(obj:0)
STE(4,113)                           2804.91347591441 	(obj:0)
STE(4,114)                           4022.36567924774 	(obj:0)
STE(4,115)                           2804.91347591441 	(obj:0)
STE(4,116)                            3801.6794792477 	(obj:0)
STE(4,117)                           5019.13168258103 	(obj:0)
STE(4,118)                           3717.47680976445 	(obj:0)
STE(4,119)                           4714.24281309775 	(obj:0)
STE(4,120)                           5931.69501643107 	(obj:0)
y1(4,100)                            1992.79638599996 	(obj:0)
y1(4,101)                                 1095.706983 	(obj:0)
y1(4,103)                            1992.79638599996 	(obj:0)
y1(4,104)                                 1095.706983 	(obj:0)
y1(4,106)                            1992.79638599996 	(obj:0)
y1(4,107)                                 1095.706983 	(obj:0)
y1(4,109)                            1992.79638599996 	(obj:0)
y1(4,110)                                 1095.706983 	(obj:0)
y1(4,112)                                 1992.796386 	(obj:0)
y1(4,113)                                 1095.706983 	(obj:0)
y1(4,115)                            1992.79638599996 	(obj:0)
y1(4,116)                                 1095.706983 	(obj:0)
y1(4,118)                            1992.79638599996 	(obj:0)
y1(4,119)                                 1095.706983 	(obj:0)
WB(3)                                21.4704933138996 	(obj:0)
AVE(3)                                3399.3204933139 	(obj:0)
AVE(4)                               3353.21046544222 	(obj:0)
WG(3)                                         3377.85 	(obj:10)
WG(4)                                3353.21046544222 	(obj:10)
BG(1)                                3377.84999999995 	(obj:10)
BG(2)                                3397.45266782141 	(obj:10)
BG(4)                                1142.70788455777 	(obj:10)
WB(1)                                3134.60043707458 	(obj:0)
AVE(1)                               3134.60043707458 	(obj:0)
WB(2)                                3326.45170866643 	(obj:0)
AVE(2)                               3326.45170866643 	(obj:0)
y1(1,1)                              897.089402999962 	(obj:0)
y1(2,4)                              916.300017464992 	(obj:0)
y1(2,5)                              19.2106144650304 	(obj:0)
y1(2,7)                              916.300017464992 	(obj:0)
y1(2,8)                              19.2106144650302 	(obj:0)
y1(2,10)                             916.300017464992 	(obj:0)
y1(2,11)                             19.2106144650302 	(obj:0)
y1(3,13)                             897.089403000015 	(obj:0)
y1(3,16)                             897.089403000015 	(obj:0)
y1(3,19)                             897.089403000015 	(obj:0)
y1(3,22)                             897.089403000015 	(obj:0)
y1(3,25)                             897.089403000015 	(obj:0)
y1(3,28)                             897.089403000015 	(obj:0)
y1(3,31)                             897.089403000015 	(obj:0)
y1(3,34)                             897.089403000015 	(obj:0)
y1(3,37)                             897.089403000013 	(obj:0)
y1(4,40)                             1992.79638599996 	(obj:0)
y1(4,41)                                  1095.706983 	(obj:0)
y1(4,43)                             1992.79638599996 	(obj:0)
y1(4,44)                                  1095.706983 	(obj:0)
y1(4,46)                             1992.79638599996 	(obj:0)
y1(4,47)                                  1095.706983 	(obj:0)
y1(4,49)                             1992.79638599996 	(obj:0)
y1(4,50)                                  1095.706983 	(obj:0)
y1(4,52)                             1992.79638599996 	(obj:0)
y1(4,53)                                  1095.706983 	(obj:0)
y1(4,55)                             1992.79638599996 	(obj:0)
y1(4,56)                                  1095.706983 	(obj:0)
y1(4,58)                             1992.79638599996 	(obj:0)
y1(4,59)                                  1095.706983 	(obj:0)
y1(4,61)                             1992.79638599996 	(obj:0)
y1(4,62)                                  1095.706983 	(obj:0)
y1(4,64)                             1992.79638599996 	(obj:0)
y1(4,65)                                  1095.706983 	(obj:0)
y1(4,67)                             1992.79638599996 	(obj:0)
y1(4,68)                                  1095.706983 	(obj:0)
y1(4,70)                             1992.79638599996 	(obj:0)
y1(4,71)                                  1095.706983 	(obj:0)
y1(4,73)                             1992.79638599996 	(obj:0)
y1(4,74)                                  1095.706983 	(obj:0)
y1(4,76)                             1992.79638599996 	(obj:0)
y1(4,77)                                  1095.706983 	(obj:0)
y1(4,79)                             1992.79638599996 	(obj:0)
y1(4,80)                                  1095.706983 	(obj:0)
y1(4,82)                             1992.79638599996 	(obj:0)
y1(4,83)                                  1095.706983 	(obj:0)
y1(4,85)                             1992.79638599996 	(obj:0)
y1(4,86)                                  1095.706983 	(obj:0)
y1(4,88)                             1992.79638599996 	(obj:0)
y1(4,89)                                  1095.706983 	(obj:0)
y1(4,91)                             1992.79638599996 	(obj:0)
y1(4,92)                                  1095.706983 	(obj:0)
y1(4,94)                             1992.79638599996 	(obj:0)
y1(4,95)                                  1095.706983 	(obj:0)
y1(4,97)                             1992.79638599996 	(obj:0)
y1(4,98)                                  1095.706983 	(obj:0)
y2(1,3)                              960.592983000042 	(obj:0)
y2(2,6)                              940.598261822154 	(obj:0)
y2(2,9)                              940.598261822154 	(obj:0)
y2(2,12)                             940.598261822154 	(obj:0)
y2(3,15)                             960.592982999986 	(obj:0)
y2(3,18)                             960.592982999986 	(obj:0)
y2(3,21)                             960.592982999986 	(obj:0)
y2(3,24)                             960.592982999986 	(obj:0)
y2(3,27)                             960.592982999986 	(obj:0)
y2(3,30)                             960.592982999986 	(obj:0)
y2(3,33)                             960.592982999986 	(obj:0)
y2(3,36)                             960.592982999986 	(obj:0)
y2(3,39)                             960.592982999986 	(obj:0)
